246 5
10 10 10 10 10 

0 0 0 0 0 0 4 2 14 26 38 
0 0 0 0 0 0 5 3 5 6 11 12 
2 0 0 1 0 0 3 10 7 4 
10 0 0 5 0 0 1 8 
3 0 0 7 0 0 1 9 
3 0 0 7 0 0 1 7 
4 0 0 5 0 0 1 13 
10 0 0 3 0 0 2 13 84 
9 0 0 4 0 0 1 13 
3 0 0 5 0 0 1 13 
6 0 0 6 0 0 1 13 
1 0 0 7 0 0 1 13 
0 0 0 0 0 0 1 50 
0 0 0 0 0 0 5 15 16 17 23 24 
8 0 2 0 0 0 3 22 20 18 
5 0 2 0 0 0 2 22 19 
3 0 7 0 0 0 2 21 20 
3 0 3 0 0 0 2 21 143 
9 0 9 0 0 0 1 20 
9 0 1 0 0 0 1 25 
5 0 10 0 0 0 1 25 
5 0 5 0 0 0 1 25 
4 0 7 0 0 0 1 25 
6 0 4 0 0 0 1 25 
0 0 0 0 0 0 1 50 
0 0 0 0 0 0 6 27 29 30 31 32 218 
6 0 1 0 0 0 1 28 
3 0 9 0 0 0 1 34 
8 0 3 0 0 0 1 36 
6 0 5 0 0 0 1 35 
1 0 4 0 0 0 1 33 
6 0 9 0 0 0 1 33 
2 0 8 0 0 0 1 37 
3 0 3 0 0 0 1 37 
1 0 4 0 0 0 1 37 
4 0 4 0 0 0 1 37 
0 0 0 0 0 0 1 50 
0 0 0 0 0 0 7 39 40 44 45 46 47 48 
9 0 0 1 0 0 2 43 42 
9 0 0 5 0 0 2 41 190 
10 0 0 7 0 0 1 42 
6 0 0 3 0 0 1 49 
8 0 0 4 0 0 1 49 
7 0 0 4 0 0 1 49 
9 0 0 8 0 0 1 49 
1 0 0 3 0 0 1 49 
2 0 0 7 0 0 1 49 
6 0 0 8 0 0 1 49 
0 0 0 0 0 0 1 50 
0 0 0 0 0 0 4 51 63 75 87 
0 0 0 0 0 0 2 52 53 
5 0 0 0 0 1 4 61 56 55 54 
2 0 0 0 0 7 3 60 55 54 
2 0 0 0 0 5 3 59 58 57 
9 0 0 0 0 5 3 59 58 57 
1 0 0 0 0 4 3 60 57 92 
7 0 0 0 0 5 1 62 
4 0 0 0 0 7 1 62 
8 0 0 0 0 5 1 62 
2 0 0 0 0 6 1 62 
9 0 0 0 0 5 1 62 
0 0 0 0 0 0 1 99 
0 0 0 0 0 0 4 64 65 67 68 
1 0 0 0 0 1 2 73 66 
1 0 0 0 0 6 4 73 72 70 69 
4 0 0 0 0 6 3 71 70 69 
5 0 0 0 0 9 3 72 70 69 
1 0 0 0 0 4 2 71 69 
3 0 0 0 0 5 2 74 181 
9 0 0 0 0 6 1 74 
2 0 0 0 0 8 1 74 
1 0 0 0 0 2 1 74 
9 0 0 0 0 3 1 74 
0 0 0 0 0 0 1 99 
0 0 0 0 0 0 5 76 77 79 80 85 
10 0 0 1 0 0 4 84 83 81 78 
5 0 0 4 0 0 2 82 81 
9 0 0 7 0 0 1 82 
10 0 0 8 0 0 1 83 
8 0 0 5 0 0 1 81 
5 0 0 3 0 0 1 86 
4 0 0 3 0 0 1 86 
3 0 0 6 0 0 1 86 
5 0 0 8 0 0 2 86 101 
1 0 0 5 0 0 1 86 
0 0 0 0 0 0 1 99 
0 0 0 0 0 0 7 88 90 91 95 96 97 107 
9 0 0 0 1 0 1 89 
2 0 0 0 6 0 2 94 93 
6 0 0 0 8 0 2 94 93 
9 0 0 0 7 0 1 92 
1 0 0 0 5 0 1 93 
3 0 0 0 1 0 1 98 
2 0 0 0 3 0 1 98 
3 0 0 0 8 0 1 98 
7 0 0 0 6 0 1 98 
2 0 0 0 5 0 1 98 
0 0 0 0 0 0 1 99 
0 0 0 0 0 0 4 100 112 124 136 
0 0 0 0 0 0 5 101 102 103 105 110 
1 1 0 0 0 0 4 109 107 106 104 
10 6 0 0 0 0 3 108 107 106 
4 5 0 0 0 0 2 107 106 
4 9 0 0 0 0 2 108 156 
4 4 0 0 0 0 1 106 
8 4 0 0 0 0 1 111 
10 6 0 0 0 0 1 111 
2 2 0 0 0 0 1 111 
7 7 0 0 0 0 1 111 
1 6 0 0 0 0 1 111 
0 0 0 0 0 0 1 148 
0 0 0 0 0 0 2 113 114 
7 1 0 0 0 0 5 122 121 117 116 115 
9 4 0 0 0 0 4 121 118 116 115 
5 7 0 0 0 0 2 120 119 
6 5 0 0 0 0 1 119 
1 4 0 0 0 0 1 120 
5 5 0 0 0 0 1 119 
7 7 0 0 0 0 1 123 
1 7 0 0 0 0 2 123 242 
7 7 0 0 0 0 1 123 
5 3 0 0 0 0 1 123 
0 0 0 0 0 0 1 148 
0 0 0 0 0 0 6 125 127 131 132 133 134 
10 0 0 1 0 0 2 130 126 
10 0 0 4 0 0 3 129 128 207 
4 0 0 8 0 0 2 129 128 
5 0 0 5 0 0 1 135 
8 0 0 5 0 0 1 135 
5 0 0 6 0 0 1 135 
2 0 0 3 0 0 1 135 
8 0 0 6 0 0 1 135 
7 0 0 5 0 0 1 135 
3 0 0 7 0 0 1 135 
0 0 0 0 0 0 1 148 
0 0 0 0 0 0 5 137 138 139 140 141 
4 0 0 0 0 1 4 146 144 143 166 
4 0 0 0 0 3 3 146 143 142 
1 0 0 0 0 5 2 146 142 
6 0 0 0 0 10 2 143 142 
5 0 0 0 0 5 1 142 
7 0 0 0 0 5 1 145 
1 0 0 0 0 6 1 145 
5 0 0 0 0 7 1 145 
3 0 0 0 0 5 1 147 
7 0 0 0 0 3 1 147 
0 0 0 0 0 0 1 148 
0 0 0 0 0 0 4 149 161 173 185 
0 0 0 0 0 0 3 150 151 153 
1 0 0 0 1 0 4 159 156 155 154 
4 0 0 0 3 0 2 158 152 
5 0 0 0 3 0 2 156 155 
7 0 0 0 7 0 1 154 
4 0 0 0 8 0 2 157 203 
3 0 0 0 4 0 1 160 
4 0 0 0 8 0 1 160 
5 0 0 0 6 0 1 160 
1 0 0 0 6 0 1 160 
7 0 0 0 4 0 1 160 
0 0 0 0 0 0 1 197 
0 0 0 0 0 0 4 162 164 165 171 
4 1 0 0 0 0 3 170 169 163 
9 3 0 0 0 0 3 167 166 202 
4 7 0 0 0 0 1 168 
3 7 0 0 0 0 1 166 
5 7 0 0 0 0 1 172 
2 5 0 0 0 0 1 172 
7 4 0 0 0 0 1 172 
8 5 0 0 0 0 1 172 
8 3 0 0 0 0 1 172 
7 8 0 0 0 0 1 172 
0 0 0 0 0 0 1 197 
0 0 0 0 0 0 4 174 175 176 212 
4 0 0 0 0 1 3 179 178 177 
8 0 0 0 0 9 2 179 177 
1 0 0 0 0 5 2 183 179 
4 0 0 0 0 9 4 183 182 181 180 
7 0 0 0 0 4 4 183 182 181 180 
8 0 0 0 0 4 3 182 181 180 
5 0 0 0 0 3 1 184 
4 0 0 0 0 5 1 184 
8 0 0 0 0 3 1 184 
10 0 0 0 0 7 1 184 
0 0 0 0 0 0 1 197 
0 0 0 0 0 0 7 186 188 189 190 193 194 195 
9 0 1 0 0 0 2 187 244 
6 0 7 0 0 0 1 191 
9 0 6 0 0 0 1 192 
7 0 5 0 0 0 1 191 
10 0 4 0 0 0 1 191 
7 0 4 0 0 0 1 196 
3 0 8 0 0 0 1 196 
3 0 7 0 0 0 1 196 
1 0 2 0 0 0 1 196 
10 0 6 0 0 0 1 196 
0 0 0 0 0 0 1 197 
0 0 0 0 0 0 4 198 210 222 234 
0 0 0 0 0 0 5 199 201 202 203 205 
8 0 0 1 0 0 1 200 
6 0 0 7 0 0 3 208 207 206 
3 0 0 6 0 0 3 208 207 206 
2 0 0 3 0 0 2 207 204 
8 0 0 7 0 0 2 204 227 
2 0 0 2 0 0 1 206 
1 0 0 3 0 0 1 206 
6 0 0 6 0 0 1 209 
10 0 0 6 0 0 1 209 
3 0 0 9 0 0 1 209 
0 0 0 0 0 0 1 246 
0 0 0 0 0 0 5 211 212 214 215 220 
6 0 0 0 1 0 3 219 213 223 
4 0 0 0 7 0 2 218 213 
8 0 0 0 5 0 2 217 216 
5 0 0 0 4 0 1 217 
1 0 0 0 5 0 1 216 
5 0 0 0 3 0 1 221 
1 0 0 0 7 0 1 221 
6 0 0 0 8 0 1 221 
9 0 0 0 5 0 1 221 
10 0 0 0 5 0 1 221 
0 0 0 0 0 0 1 246 
0 0 0 0 0 0 2 223 224 
2 0 1 0 0 0 3 232 227 225 
3 0 4 0 0 0 3 230 228 226 
2 0 8 0 0 0 3 231 230 229 
10 0 6 0 0 0 2 231 229 
5 0 4 0 0 0 2 230 229 
10 0 3 0 0 0 2 229 244 
9 0 5 0 0 0 1 233 
10 0 6 0 0 0 1 233 
1 0 6 0 0 0 1 233 
7 0 7 0 0 0 1 233 
0 0 0 0 0 0 1 246 
0 0 0 0 0 0 5 235 236 237 239 244 
9 0 1 0 0 0 3 241 240 238 
1 0 6 0 0 0 3 242 241 240 
7 0 8 0 0 0 2 243 241 
9 0 5 0 0 0 1 242 
7 0 5 0 0 0 1 240 
9 0 5 0 0 0 1 245 
9 0 5 0 0 0 1 245 
4 0 5 0 0 0 1 245 
10 0 7 0 0 0 1 245 
7 0 3 0 0 0 1 245 
0 0 0 0 0 0 1 246 
0 0 0 0 0 0 0 
